db/data/313909914519844011109470002300121429.z3.out
-------------------
2500.176041738
